Minimize
  - 25 y_0 - 9 y_1 - 34 y_2 - 28 y_3 - 24 y_4 - 4 y_6 - 19 y_7 - 34 y_8
   - 23 y_9 + 64 x_0_2 + 50 x_0_5 + 65 x_1_4 + 18 x_1_5 + 19 x_1_6
   + 33 x_2_4 + 95 x_2_9 + 117 x_3_8 + 101 x_3_9 + 65 x_4_1 + 24 x_4_7
   + 8 x_5_6 + 68 x_5_8 + 70 x_7_8 + 70 x_7_8 + 70 x_7_8 + 70 x_7_8
   + 70 x_7_8 + 70 x_7_8 + 70 x_7_8 + 70 x_7_8 + 70 x_7_8 + 70 x_7_8
   + 70 x_7_8 + 70 x_7_8 + 70 x_7_8 + 70 x_7_8 + 70 x_7_8 + 70 x_7_8
   + 70 x_7_8 + 70 x_7_8 + 70 x_7_8 + 70 x_7_8 + 70 x_7_8 + 70 x_7_8
   + 70 x_7_8 + 70 x_7_8 + 70 x_7_8 + 70 x_7_8 + 70 x_7_8 + 70 x_7_8
   + 70 x_7_8 + 70 x_7_8 + 70 x_7_8 + 70 x_7_8 + 70 x_7_8 + 70 x_7_8
   + 70 x_7_8 + 70 x_7_8 + 70 x_7_8 + 70 x_7_8 + 70 x_7_8 + 70 x_7_8
   + 70 x_7_8 + 70 x_7_8 + 70 x_7_8 + 70 x_7_8 + 70 x_7_8 + 70 x_7_8
   + 70 x_7_8 + 70 x_7_8 + 70 x_7_8 + 70 x_7_8 + 70 x_7_8 + 70 x_7_8
   + 70 x_7_8 + 70 x_7_8 + 70 x_7_8 + 70 x_7_8 + 70 x_7_8 + 70 x_7_8
   + 70 x_7_8 + 70 x_7_8 + 70 x_7_8 + 70 x_7_8 + 70 x_7_8 + 70 x_7_8
   + 70 x_7_8 + 70 x_7_8 + 70 x_7_8 + 70 x_7_8 + 70 x_7_8 + 70 x_7_8
   + 70 x_7_8 + 70 x_7_8 + 70 x_7_8 + 70 x_7_8 + 70 x_7_8 + 70 x_7_8
   + 70 x_7_8 + 70 x_7_8 + 70 x_7_8 + 70 x_7_8 + 70 x_7_8 + 70 x_7_8
   + 70 x_7_8 + 70 x_7_8 + 70 x_7_8 + 70 x_7_8 + 70 x_7_8 + 70 x_7_8
   + 70 x_7_8 + 70 x_7_8 + 70 x_7_8 + 70 x_7_8 + 70 x_7_8 + 70 x_7_8
   + 70 x_7_8 + 70 x_7_8 + 70 x_7_8 + 70 x_7_8 + 70 x_7_8 + 70 x_7_8
   + 70 x_7_8 + 70 x_7_8 + 70 x_7_8 + 70 x_7_8 + 70 x_7_8 + 70 x_7_8
   + 70 x_7_8 + 70 x_7_8 + 70 x_7_8 + 70 x_7_8 + 70 x_7_8 + 70 x_7_8
   + 70 x_7_8 + 70 x_7_8 + 70 x_7_8 + 70 x_7_8 + 70 x_7_8 + 70 x_7_8
   + 70 x_7_8 + 70 x_7_8 + 70 x_7_8 + 70 x_7_8 + 70 x_7_8 + 70 x_7_8
   + 70 x_7_8 + 70 x_7_8 + 70 x_7_8 + 70 x_7_8 + 70 x_7_8 + 70 x_7_8
   + 70 x_7_8 + 70 x_7_8 + 200 Constant
Subject To
 c_0: y_0 = 1
 c_1_0: y_0 >= 1
 c_1_1: y_1 >= 1
 c_1_2: y_2 >= 1
 c_1_3: y_3 >= 1
 c_1_4: y_4 >= 1
 c_1_5: y_5 >= 1
 c_1_6: y_6 >= 1
 c_1_7: y_7 >= 1
 c_1_8: y_8 >= 1
 c_1_9: y_9 >= 1
 c_2_0: - 2 y_0 + x_0_2 + x_0_5 = 0
 c_2_1: - 2 y_1 + x_1_5 + x_1_6 + 2 x_4_1 = 0
 c_2_2: - 2 y_2 + x_0_2 + x_2_4 + x_2_9 = 0
 c_2_3: - 2 y_3 + x_3_8 + x_3_9 = 0
 c_2_4: - 2 y_4 + x_2_4 + 2 x_4_1 + x_4_7 = 0
 c_2_5: - 2 y_5 + x_0_5 + x_1_5 + x_5_6 + x_5_8 = 0
 c_2_6: - 2 y_6 + x_1_6 + x_5_6 = 0
 c_2_7: - 2 y_7 + x_4_7 + 132 x_7_8 = 0
 c_2_8: - 2 y_8 + x_3_8 + x_5_8 + 132 x_7_8 = 0
 c_2_9: - 2 y_9 + x_2_9 + x_3_9 = 0
Bounds
 Constant = 1
Binaries
 y_0 y_1 y_2 y_3 y_4 y_5 y_6 y_7 y_8 y_9 x_0_2 x_0_5 x_1_4 x_1_5 x_1_6
 x_2_4 x_2_9 x_3_8 x_3_9 x_4_1 x_4_7 x_5_6 x_5_8 x_7_8 x_7_8 x_7_8 x_7_8
 x_7_8 x_7_8 x_7_8 x_7_8 x_7_8 x_7_8 x_7_8 x_7_8 x_7_8 x_7_8 x_7_8 x_7_8
 x_7_8 x_7_8 x_7_8 x_7_8 x_7_8 x_7_8 x_7_8 x_7_8 x_7_8 x_7_8 x_7_8 x_7_8
 x_7_8 x_7_8 x_7_8 x_7_8 x_7_8 x_7_8 x_7_8 x_7_8 x_7_8 x_7_8 x_7_8 x_7_8
 x_7_8 x_7_8 x_7_8 x_7_8 x_7_8 x_7_8 x_7_8 x_7_8 x_7_8 x_7_8 x_7_8 x_7_8
 x_7_8 x_7_8 x_7_8 x_7_8 x_7_8 x_7_8 x_7_8 x_7_8 x_7_8 x_7_8 x_7_8 x_7_8
 x_7_8 x_7_8 x_7_8 x_7_8 x_7_8 x_7_8 x_7_8 x_7_8 x_7_8 x_7_8 x_7_8 x_7_8
 x_7_8 x_7_8 x_7_8 x_7_8 x_7_8 x_7_8 x_7_8 x_7_8 x_7_8 x_7_8 x_7_8 x_7_8
 x_7_8 x_7_8 x_7_8 x_7_8 x_7_8 x_7_8 x_7_8 x_7_8 x_7_8 x_7_8 x_7_8 x_7_8
 x_7_8 x_7_8 x_7_8 x_7_8 x_7_8 x_7_8 x_7_8 x_7_8 x_7_8 x_7_8 x_7_8 x_7_8
 x_7_8 x_7_8 x_7_8 x_7_8 x_7_8 x_7_8 x_7_8 x_7_8 x_7_8 x_7_8 x_7_8 x_7_8
 x_7_8 x_7_8 x_7_8 x_7_8 x_7_8 x_7_8 x_7_8 x_7_8
End
